(declare-const return@width Int)
(declare-const term_to_project_onto14 Real)
(declare-const term_to_project_onto1 Real)
(declare-const term_to_project_onto0 Real)
(declare-const param2 Int)
(declare-const term_to_project_onto Real)
(declare-const param0@pos Int)
(declare-const term_to_project_onto16 Real)
(declare-const tmp Int)
(declare-const param0@width Int)
(declare-const param2@width Int)
(declare-const return Int)
(declare-const term_to_project_onto10 Real)
(declare-const term_to_project_onto6 Real)
(declare-const param3@pos Int)
(declare-const term_to_project_onto13 Real)
(declare-const term_to_project_onto11 Real)
(declare-const term_to_project_onto15 Real)
(declare-const return@pos Int)
(declare-const Id_MCDC_99 Int)
(declare-const param2@pos Int)
(declare-const term_to_project_onto5 Real)
(declare-const param1 Int)
(declare-const param0 Int)
(declare-const term_to_project_onto2 Real)
(declare-const param1@width Int)
(declare-const param1@pos Int)
(declare-const param3 Int)
(declare-const term_to_project_onto12 Real)
(declare-const term_to_project_onto3 Real)
(declare-const param3@width Int)
(declare-const term_to_project_onto8 Real)
(declare-const term_to_project_onto4 Real)
(declare-const term_to_project_onto9 Real)
(declare-const term_to_project_onto7 Real)
(assert (exists
         ((|param3@width'?1| Int) (|param2@width'?2| Int)
            (|param1@width'?3| Int) (|param0@width'?4| Int)
            (|return@width'?5| Int) (|param3@pos'?6| Int)
            (|param2@pos'?7| Int) (|param1@pos'?8| Int) (|param0@pos'?9| Int)
            (|return@pos'?10| Int) (|param3'?11| Int) (|param2'?12| Int)
            (|param1'?13| Int) (|param0'?14| Int) (|return'?15| Int)
            (|tmp'?16| Int) (|Id_MCDC_102'?17| Int) (|Id_MCDC_99'?18| Int)
            (type_err?19 Int) (type_err?20 Int) (havoc?21 Int)
            (type_err?22 Int) (type_err?23 Int) (type_err?24 Int)
            (type_err?25 Int) (type_err?26 Int) (type_err?27 Int)
            (type_err?28 Int) (type_err?29 Int) (tr?30 Int) (tr?31 Int)
            (tr?32 Int) (tr?33 Int) (phi_tmp?34 Int) (phi_tmp?35 Int)
            (tr?36 Int) (tr?37 Int) (Id_MCDC_102?38 Int))
         (and (<= (- Id_MCDC_102?38) 0) (or (< tr?37 0) (< (- tr?36) 0))
                (or (and (<= (- Id_MCDC_102?38) 0)
                           (or (and (<= (+ (- Id_MCDC_102?38) 42) 0)
                                      (= (- phi_tmp?35) 0))
                                 (and (<= (+ Id_MCDC_102?38 -41) 0)
                                        (= (+ (- phi_tmp?35) 1) 0)))
                           (= (+ (- phi_tmp?34) phi_tmp?35) 0))
                      (and (<= (+ Id_MCDC_102?38 1) 0) (= (- phi_tmp?34) 0)))
                (or (<= (+ phi_tmp?34 1) 0) (<= (+ (- phi_tmp?34) 1) 0))
                (<= (- havoc?21) 0)
                (= (+ (- type_err?22) |param3@width'?1|) 0)
                (= (+ (- type_err?23) |param2@width'?2|) 0)
                (= (+ (- type_err?24) |param1@width'?3|) 0)
                (= (+ (- type_err?25) |param0@width'?4|) 0)
                (= (+ (- type_err?19) |return@width'?5|) 0)
                (= (+ (- type_err?26) |param3@pos'?6|) 0)
                (= (+ (- type_err?27) |param2@pos'?7|) 0)
                (= (+ (- type_err?28) |param1@pos'?8|) 0)
                (= (+ (- type_err?29) |param0@pos'?9|) 0)
                (= (+ (- type_err?20) |return@pos'?10|) 0)
                (= (+ (- tr?30) |param3'?11|) 0)
                (= (+ (- tr?31) |param2'?12|) 0)
                (= (+ (- tr?32) |param1'?13|) 0)
                (= (+ (- tr?33) |param0'?14|) 0)
                (= (+ |return'?15| (- havoc?21)) 0)
                (= (+ |tmp'?16| (- phi_tmp?34)) 0)
                (= (+ |Id_MCDC_102'?17| (- Id_MCDC_102?38) -1) 0)
                (= (+ |Id_MCDC_99'?18| (- Id_MCDC_102?38)) 0)
                (= term_to_project_onto16 (+ |Id_MCDC_99'?18| (- Id_MCDC_99)))
                (= term_to_project_onto15 (+ |Id_MCDC_102'?17|
                                               (- Id_MCDC_102?38)))
                (= term_to_project_onto14 (+ |tmp'?16| (- tmp)))
                (= term_to_project_onto13 (+ |return'?15| (- return)))
                (= term_to_project_onto12 (+ |param0'?14| (- param0)))
                (= term_to_project_onto11 (+ |param1'?13| (- param1)))
                (= term_to_project_onto10 (+ |param2'?12| (- param2)))
                (= term_to_project_onto9 (+ |param3'?11| (- param3)))
                (= term_to_project_onto8 (+ |return@pos'?10| (- return@pos)))
                (= term_to_project_onto7 (+ |param0@pos'?9| (- param0@pos)))
                (= term_to_project_onto6 (+ |param1@pos'?8| (- param1@pos)))
                (= term_to_project_onto5 (+ |param2@pos'?7| (- param2@pos)))
                (= term_to_project_onto4 (+ |param3@pos'?6| (- param3@pos)))
                (= term_to_project_onto3 (+ |return@width'?5|
                                              (- return@width)))
                (= term_to_project_onto2 (+ |param0@width'?4|
                                              (- param0@width)))
                (= term_to_project_onto1 (+ |param1@width'?3|
                                              (- param1@width)))
                (= term_to_project_onto0 (+ |param2@width'?2|
                                              (- param2@width)))
                (= term_to_project_onto (+ |param3@width'?1| (- param3@width))))))
(check-sat)
